
  22    4
  10   10   10   10

   0   0   0   0   0   6 2 3 4 5 7 9 
   7  10  10  10  10   4 21 14 11 8 
   8  10  10  10  10   3 13 8 6 
   4  10  10  10  10   3 13 12 6 
   5  10  10  10  10   5 20 14 12 11 10 
   5  10  10  10  10   5 21 20 19 14 10 
   7  10  10  10  10   4 19 12 11 10 
   6  10  10  10  10   4 20 19 12 10 
   5  10  10  10  10   3 19 18 12 
   7  10  10  10  10   4 18 17 16 15 
   7  10  10  10  10   2 17 13 
   4  10  10  10  10   3 17 16 15 
   1  10  10  10  10   2 16 15 
   7  10  10  10  10   2 18 15 
   9  10  10  10  10   1 22
   9  10  10  10  10   1 22
   7  10  10  10  10   1 22
   5  10  10  10  10   1 22
   7  10  10  10  10   1 22
   9  10  10  10  10   1 22
   6  10  10  10  10   1 22
   0   0   0   0   0   0 
